1 1 2 0
1 3 -2 0
1 3 -4 0
1 -5 6 0
1 5 -7 0
1 -5 4 0
1 5 -8 0
1 5 9 0
1 -10 -11 0
1 -4 12 0
1 -4 -13 0
1 14 -15 0
1 -14 -16 0
1 -14 10 0
1 14 4 0
1 -14 5 0
1 2 -17 0
1 2 -10 0
1 2 18 0
1 -9 -10 0
1 9 3 0
1 -9 -19 0
1 -20 19 0
1 -16 21 0
1 16 -20 0
1 -22 6 0
1 -15 -23 0
1 -15 21 0
1 15 -24 0
1 -15 -25 0
1 15 14 0
1 -21 -26 0
1 21 -7 0
1 -21 27 0
1 21 -28 0
1 21 29 0
1 21 -5 0
1 -21 30 0
1 -7 -15 0
1 7 -16 0
1 7 27 0
1 -7 -21 0
1 -7 -20 0
1 -7 5 0
1 31 6 0
1 31 -12 0
1 -31 15 0
1 31 32 0
1 -31 -13 0
1 31 22 0
1 31 -20 0
1 31 5 0
1 -28 33 0
1 -28 -7 0
1 -28 34 0
1 28 13 0
1 -28 24 0
1 27 -7 0
1 27 -34 0
1 -27 -23 0
1 -27 -25 0
1 26 -34 0
1 -26 23 0
1 -26 24 0
1 -25 35 0
1 -25 -28 0
1 -25 -36 0
1 23 35 0
1 23 -27 0
1 -23 25 0
1 24 -22 0
1 -24 -37 0
1 -34 30 0
1 -38 39 0
1 38 1 0
1 40 -3 0
1 40 -39 0
1 40 41 0
1 8 -42 0
1 -8 43 0
1 -8 11 0
1 11 -44 0
1 42 -45 0
1 -41 -11 0
1 -41 -45 0
1 41 -19 0
1 -46 -38 0
1 19 -9 0
1 -47 43 0
1 47 -16 0
1 47 44 0
1 -47 -9 0
1 45 -44 0
1 45 2 0
1 -45 48 0
1 45 22 0
1 -45 49 0
1 -45 -9 0
1 -17 -42 0
1 -17 -43 0
1 17 -44 0
1 -17 -2 0
1 17 41 0
1 17 -45 0
1 44 -49 0
1 -44 -50 0
1 44 -17 0
1 44 51 0
1 44 -8 0
1 -49 -12 0
1 -49 45 0
1 -49 8 0
1 -43 17 0
1 -43 47 0
1 43 45 0
1 -48 -52 0
1 -48 -45 0
1 48 -8 0
1 13 6 0
1 -13 -12 0
1 -13 -44 0
1 -13 49 0
1 13 14 0
1 -12 53 0
1 -12 13 0
1 -12 49 0
1 12 54 0
1 -51 50 0
1 -51 -44 0
1 51 18 0
1 51 -55 0
1 51 -31 0
1 -51 56 0
1 50 -55 0
1 -50 31 0
1 -57 50 0
1 57 17 0
1 -57 -32 0
1 -57 13 0
1 57 -58 0
1 -59 12 0
1 59 -17 0
1 59 -60 0
1 -59 61 0
1 59 -32 0
1 59 -51 0
1 59 58 0
1 -53 52 0
1 -53 -51 0
1 -53 -13 0
1 53 54 0
1 53 62 0
1 -54 12 0
1 -54 53 0
1 54 -45 0
1 -54 -62 0
1 -32 -57 0
1 32 -55 0
1 32 21 0
1 -30 6 0
1 -30 -34 0
1 -30 57 0
1 30 -18 0
1 -30 -55 0
1 30 31 0
1 30 56 0
1 -61 -57 0
1 -61 -55 0
1 -61 -56 0
1 63 62 0
1 55 -61 0
1 55 -51 0
1 -55 30 0
1 -64 61 0
1 64 -32 0
1 -18 65 0
1 18 -66 0
1 18 61 0
1 -18 32 0
1 -18 58 0
1 -18 56 0
1 -56 65 0
1 -56 66 0
1 -56 18 0
1 -56 67 0
1 -56 63 0
1 35 64 0
1 35 -34 0
1 -35 60 0
1 35 68 0
1 69 70 0
1 -69 55 0
1 -69 68 0
1 69 -24 0
1 -71 64 0
1 71 -72 0
1 73 72 0
1 -73 -74 0
1 -73 -71 0
1 -73 29 0
1 29 -75 0
1 -29 69 0
1 -72 -61 0
1 68 -31 0
1 -68 76 0
1 68 73 0
1 70 -65 0
1 70 -68 0
1 70 -76 0
1 70 -73 0
1 77 -72 0
1 -77 78 0
1 -77 -74 0
1 -77 -65 0
1 -77 -37 0
1 77 36 0
1 -79 -72 0
1 -79 78 0
1 79 29 0
1 -79 37 0
1 80 -75 0
1 -80 -29 0
1 75 -36 0
1 -36 71 0
1 74 -23 0
1 74 -75 0
1 37 71 0
1 -37 75 0
1 37 -24 0
1 -78 -80 0
1 -78 71 0
1 78 -73 0
1 81 -32 0
1 -81 82 0
1 81 -49 0
1 -52 83 0
1 52 44 0
1 -52 53 0
1 -52 81 0
1 52 -30 0
1 84 -85 0
1 -84 -86 0
1 -84 -61 0
1 84 -87 0
1 -84 -62 0
1 62 -83 0
1 62 86 0
1 -62 -88 0
1 -62 53 0
1 -62 -89 0
1 -62 -63 0
1 85 -66 0
1 -85 -62 0
1 82 85 0
1 82 -60 0
1 82 -84 0
1 -83 52 0
1 -60 -88 0
1 60 59 0
1 58 -85 0
1 58 88 0
1 58 -90 0
1 58 -87 0
1 -66 -85 0
1 -66 86 0
1 66 88 0
1 -66 91 0
1 66 -56 0
1 92 -66 0
1 -92 -91 0
1 92 -82 0
1 -92 90 0
1 -92 -73 0
1 88 -87 0
1 88 -66 0
1 88 -76 0
1 88 58 0
1 87 -65 0
1 86 62 0
1 -90 84 0
1 90 -48 0
1 65 64 0
1 -65 -70 0
1 65 -77 0
1 65 18 0
1 65 -55 0
1 -65 56 0
1 67 70 0
1 -67 65 0
1 67 88 0
1 -67 18 0
1 -67 68 0
1 -67 -79 0
1 -93 -88 0
1 93 -68 0
1 93 -87 0
1 -76 88 0
1 -76 -91 0
1 -76 -68 0
1 -91 -76 0
1 91 -92 0
1 91 -94 0
1 -94 -93 0
1 -94 -65 0
1 94 -76 0
1 94 67 0
1 95 66 0
1 -95 76 0
1 -96 -65 0
1 96 -95 0
1 -96 76 0
1 96 -54 0
1 -96 -92 0
